2
100 2
71
30 1 5
31 1 6
32 1 6
33 1 4
34 1 14
35 1 6
36 1 6
37 1 6
38 1 7
39 1 7
40 1 6
41 1 4
42 1 7
43 1 6
44 1 8
45 1 7
46 1 7
47 1 4
48 1 11
49 1 3
50 1 6
51 1 9
52 1 7
53 1 5
54 1 7
55 1 4
56 1 8
57 1 7
58 1 4
59 1 14
60 1 6
61 1 9
62 1 11
63 1 7
64 1 5
65 1 8
66 1 2
67 1 3
68 1 5
69 1 8
70 1 11
71 1 7
72 1 3
73 1 8
74 1 6
75 1 6
76 1 9
77 1 6
78 1 4
79 1 9
80 1 12
81 1 3
82 1 7
83 1 10
84 1 5
85 1 11
86 1 6
87 1 10
88 1 5
89 1 7
90 1 10
91 1 6
92 1 12
93 1 8
94 1 7
95 1 7
96 1 11
97 1 4
98 1 8
99 1 9
100 1 8
